Sr Mn  Ca O 
 1.0000000000000000
     3.8099846261953436   -0.0000000000000000   -0.0000000000000000
     0.0000000000000000    3.8099846261953436    0.0000000000000000
     0.0000000000000000    0.0000000000000000    3.8099846261953436
  Sr Mn  O
   1   1   3
Cartesian
  0.0000000000000000  0.0000000000000000  0.0000000000000000
  1.9049923130976718  1.9049923130976718  1.9049923130976718
  1.9049923130976718  2.0049923130976718  0.0000000000000000
  0.0000000000000000  1.9049923130976718  1.9049923130976718
  1.9049923130976718  0.0000000000000000  1.9049923130976718
